CPLEX 12.4.0.0: timing=1
varsel=4
mipdisplay=4
MIP Presolve eliminated 504745 rows and 1770 columns.
MIP Presolve modified 17110 coefficients.
Reduced MIP has 97527 rows, 1711 columns, and 292581 nonzeros.
Reduced MIP has 1711 binaries, 0 generals, 0 SOSs, and 0 indicators.
Probing time =    0.03 sec.
Found feasible solution after 8.90 sec.  Objective = 0.0000
Probing time =    0.06 sec.
MIP emphasis: balance optimality and feasibility.
MIP search method: dynamic search.
Parallel mode: deterministic, using up to 4 threads.
Root relaxation solution time =    5.96 sec.

        Nodes                                         Cuts/
   Node  Left     Objective  IInf  Best Integer    Best Bound    ItCnt     Gap

*     0+    0                            0.0000                     19     --- 
      0     0        0.2222  1028        0.0000        0.2222       19     --- 
*     0+    0                            0.0887        0.2222       19  150.37%
      0     0        0.2189  1093        0.0887    Cuts: 1034     7191  146.66%
      0     0        0.2153  1110        0.0887    Cuts: 1229     9106  142.60%
*     0+    0                            0.1027        0.2153     9106  109.65%
      0     0        0.2123  1232        0.1027 ZeroHalf: 1278    11536  106.78%
      0     0        0.2100  1252        0.1027 ZeroHalf: 1448    13596  104.54%
      0     0        0.2079  1212        0.1027 ZeroHalf: 450    15241  102.44%
*     0+    0                            0.1218        0.2079    15241   70.63%
      0     0        0.2074  1246        0.1218 ZeroHalf: 248    16363   70.27%
      0     0        0.2067  1174        0.1218 ZeroHalf: 199    17693   69.72%
      0     0        0.2063  1265        0.1218 ZeroHalf: 444    19101   69.33%
      0     0        0.2058  1244        0.1218 ZeroHalf: 165    19892   68.94%
      0     0        0.2055  1224        0.1218 ZeroHalf: 711    20978   68.66%
      0     0        0.2052  1245        0.1218 ZeroHalf: 305    21812   68.46%
*     0+    0                            0.1423        0.2052    21812   44.25%
      0     0        0.2051  1229        0.1423 ZeroHalf: 205    22432   44.16%
      0     0        0.2051  1241        0.1423  ZeroHalf: 20    22699   44.14%
      0     0        0.2050  1248        0.1423  ZeroHalf: 26    23079   44.11%
Heuristic still looking.
*     0+    0                            0.1431        0.2050    23079   43.26%
Heuristic still looking.
      0     2        0.2050  1248        0.1431        0.2050    23079   43.26%
Elapsed real time = 697.04 sec. (tree size =  0.01 MB)
      1     3        0.2034  1224        0.1431        0.2050    58936   43.26%
      2     4        0.1974  1089        0.1431        0.2050    84904   43.26%
      3     5        0.1948  1026        0.1431        0.2034    90738   42.16%
      4     6        0.1983   921        0.1431        0.2034   176092   42.16%
*     5+    5                            0.1731        0.2034   190392   17.53%
      6     8        0.1978   804        0.1731        0.2034   203813   17.53%
      8    10        0.1902   884        0.1731        0.2023   266052   16.88%
                                                 ZeroHalf: 26                  
      9    11        0.1957   852        0.1731        0.2023   302619   16.88%
     11    13        0.1955  1004        0.1731        0.2023   334787   16.88%
     13    15        0.1872   780        0.1731        0.2023   432475   16.88%
     17    19        0.1871   858        0.1731        0.2023   503302   16.88%
Elapsed real time = 6458.27 sec. (tree size =  0.03 MB)
     18    20        0.1949   842        0.1731        0.2023   512272   16.88%
     21    23        0.1869   763        0.1731        0.2023   529365   16.88%
     23    25        0.1998   839        0.1731        0.2023   555176   16.88%
     24    26        0.1902  1062        0.1731        0.2023   636284   16.88%
     36    38        0.1826    92        0.1731        0.2023   715554   16.88%
     37    39        0.1916   749        0.1731        0.2023   716625   16.88%
*    38+   38                            0.1781        0.2023   725360   13.62%
     38    40        0.1966   749        0.1781        0.2023   725360   13.62%
     41    43        0.1900   734        0.1781        0.2023   739291   13.62%
     42    44        0.1925   733        0.1781        0.2023   757823   13.62%
*    44    42      integral     0        0.1826        0.2023   772958   10.80%
Elapsed real time = 9590.53 sec. (tree size =  1.24 MB)
     45    43        0.1900   682        0.1826        0.2023   779027   10.80%
     46    44        0.1964   728        0.1826        0.2023   785558   10.80%
*    47    36      integral     0        0.1915        0.2023   816779    5.62%
     50    39        0.1944   724        0.1915        0.2023   848987    5.62%
     51    40        0.1950   857        0.1915        0.2023   867275    5.62%
     55    44        0.1941   836        0.1915        0.2023   893248    5.62%
     58    47        0.1924   734        0.1915        0.2023   920108    5.62%
     59    48        0.1931   837        0.1915        0.2023   926673    5.62%
     61    50        0.1836   499        0.1915        0.2023   977002    5.62%
     67    34        0.1930   795        0.1915        0.2023  1068694    5.62%
                                                 ZeroHalf: 11                  
Elapsed real time = 12067.57 sec. (tree size =  0.09 MB)
     71    32        cutoff              0.1915        0.2023  1096131    5.62%
     75    30        cutoff              0.1915        0.2023  1123698    5.62%
     76    29        cutoff              0.1915        0.2023  1146623    5.62%
     79    30        cutoff              0.1915        0.2023  1198113    5.62%
     83    34        0.1946   920        0.1915        0.2023  1225171    5.62%
     87    38        0.1927   892        0.1915        0.2023  1254440    5.62%
     88    39        0.1934  1100        0.1915        0.2023  1279082    5.62%
     92    41        0.1930   998        0.1915        0.2023  1329048    5.62%
     96    41        0.1920   992        0.1915        0.2023  1337599    5.62%
    100    41        0.1924   980        0.1915        0.2023  1362770    5.62%
Elapsed real time = 15148.54 sec. (tree size =  0.91 MB)
    113    46        0.1918   888        0.1915        0.1987  1532713    3.71%
                                                 ZeroHalf: 10                  
    115    46        0.1922  1044        0.1915        0.1987  1557573    3.71%
    119    48        0.1919   885        0.1915        0.1987  1594522    3.71%
    127    44        cutoff              0.1915        0.1987  1608624    3.71%
    131    44        cutoff              0.1915        0.1987  1622410    3.71%
    135    47        0.1937   750        0.1915        0.1987  1646389    3.71%
    143    51        cutoff              0.1915        0.1987  1685237    3.71%
    144    52        0.1941   777        0.1915        0.1987  1689877    3.71%
    148    52        0.1920   779        0.1915        0.1987  1711264    3.71%
    160    46        cutoff              0.1915        0.1987  1748347    3.71%
Elapsed real time = 17194.60 sec. (tree size =  0.90 MB)
    164    44        cutoff              0.1915        0.1987  1777033    3.71%
    168    40        cutoff              0.1915        0.1987  1788665    3.71%
    172    38        cutoff              0.1915        0.1987  1802838    3.71%
    174    36        cutoff              0.1915        0.1987  1822841    3.71%
    176    34        cutoff              0.1915        0.1987  1840378    3.71%
    180    32        0.1922   789        0.1915        0.1987  1867008    3.71%
    188    30        cutoff              0.1915        0.1987  1892794    3.71%
    192    30        0.1923   831        0.1915        0.1987  1922282    3.71%
    211    11        cutoff              0.1915        0.1941  1967525    1.33%
                                                 ZeroHalf: 14                  
    212    12        0.1928   987        0.1915        0.1941  1968443    1.33%
Elapsed real time = 18173.67 sec. (tree size =  0.02 MB)
    213    11        cutoff              0.1915        0.1941  1974536    1.33%
    223     5        cutoff              0.1915        0.1941  1976018    1.33%

Zero-half cuts applied:  252

Root node processing (before b&c):
  Real time             =  687.89
Parallel b&c, 4 threads:
  Real time             = 17560.87
  Sync time (average)   =    0.01
  Wait time (average)   =    0.00
                          -------
Total (root+branch&cut) = 18248.76 sec.

Times (seconds):
Input =  0.749885
Solve =  54142.6
Output = 1.23781
CPLEX 12.4.0.0: optimal integer solution; objective 0.191545679
1977946 MIP simplex iterations
231 branch-and-bound nodes
_total_solve_user_time = 54122.1

t [*,*]
:    1   2   3   4   5   6   7   8   9  10  11  12  13  14  15  16  17  18  19 :=
1    0   0   1   0   1   1   1   1   1   0   1   1   0   1   1   0   1   1   0
2    0   0   1   0   1   1   1   1   1   0   1   1   0   1   1   0   1   1   0
3    1   1   0   1   0   0   1   0   0   1   0   1   1   1   0   1   0   1   1
4    0   0   1   0   1   1   1   1   1   0   1   1   0   1   1   0   1   1   0
5    1   1   0   1   0   0   1   0   0   1   0   1   1   1   0   1   0   1   1
6    1   1   0   1   0   0   1   0   0   1   0   1   1   1   0   1   0   1   1
7    1   1   1   1   1   1   0   1   1   1   1   0   1   0   1   1   1   0   1
8    1   1   0   1   0   0   1   0   0   1   0   1   1   1   0   1   0   1   1
9    1   1   0   1   0   0   1   0   0   1   0   1   1   1   0   1   0   1   1
10   0   0   1   0   1   1   1   1   1   0   1   1   0   1   1   0   1   1   0
11   1   1   0   1   0   0   1   0   0   1   0   1   1   1   0   1   0   1   1
12   1   1   1   1   1   1   0   1   1   1   1   0   1   0   1   1   1   0   1
13   0   0   1   0   1   1   1   1   1   0   1   1   0   1   1   0   1   1   0
14   1   1   1   1   1   1   0   1   1   1   1   0   1   0   1   1   1   0   1
15   1   1   0   1   0   0   1   0   0   1   0   1   1   1   0   1   0   1   1
16   0   0   1   0   1   1   1   1   1   0   1   1   0   1   1   0   1   1   0
17   1   1   0   1   0   0   1   0   0   1   0   1   1   1   0   1   0   1   1
18   1   1   1   1   1   1   0   1   1   1   1   0   1   0   1   1   1   0   1
19   0   0   1   0   1   1   1   1   1   0   1   1   0   1   1   0   1   1   0
20   1   1   1   1   1   1   0   1   1   1   1   0   1   0   1   1   1   0   1
21   0   0   1   0   1   1   1   1   1   0   1   1   0   1   1   0   1   1   0
22   1   1   0   1   0   0   1   0   0   1   0   1   1   1   0   1   0   1   1
23   1   1   0   1   0   0   1   0   0   1   0   1   1   1   0   1   0   1   1
24   0   0   1   0   1   1   1   1   1   0   1   1   0   1   1   0   1   1   0
25   1   1   0   1   0   0   1   0   0   1   0   1   1   1   0   1   0   1   1
26   1   1   0   1   0   0   1   0   0   1   0   1   1   1   0   1   0   1   1
27   1   1   0   1   0   0   1   0   0   1   0   1   1   1   0   1   0   1   1
28   1   1   1   1   1   1   0   1   1   1   1   0   1   0   1   1   1   0   1
29   0   0   1   0   1   1   1   1   1   0   1   1   0   1   1   0   1   1   0
30   1   1   1   1   1   1   0   1   1   1   1   0   1   0   1   1   1   0   1
31   1   1   0   1   0   0   1   0   0   1   0   1   1   1   0   1   0   1   1
32   1   1   1   1   1   1   0   1   1   1   1   0   1   0   1   1   1   0   1
33   1   1   1   1   1   1   0   1   1   1   1   0   1   0   1   1   1   0   1
34   0   0   1   0   1   1   1   1   1   0   1   1   0   1   1   0   1   1   0
35   0   0   1   0   1   1   1   1   1   0   1   1   0   1   1   0   1   1   0
36   0   0   1   0   1   1   1   1   1   0   1   1   0   1   1   0   1   1   0
37   1   1   0   1   0   0   1   0   0   1   0   1   1   1   0   1   0   1   1
38   0   0   1   0   1   1   1   1   1   0   1   1   0   1   1   0   1   1   0
39   0   0   1   0   1   1   1   1   1   0   1   1   0   1   1   0   1   1   0
40   0   0   1   0   1   1   1   1   1   0   1   1   0   1   1   0   1   1   0
41   0   0   1   0   1   1   1   1   1   0   1   1   0   1   1   0   1   1   0
42   0   0   1   0   1   1   1   1   1   0   1   1   0   1   1   0   1   1   0
43   1   1   1   1   1   1   0   1   1   1   1   0   1   0   1   1   1   0   1
44   0   0   1   0   1   1   1   1   1   0   1   1   0   1   1   0   1   1   0
45   1   1   1   1   1   1   0   1   1   1   1   0   1   0   1   1   1   0   1
46   1   1   1   1   1   1   0   1   1   1   1   0   1   0   1   1   1   0   1
47   1   1   0   1   0   0   1   0   0   1   0   1   1   1   0   1   0   1   1
48   1   1   1   1   1   1   0   1   1   1   1   0   1   0   1   1   1   0   1
49   1   1   0   1   0   0   1   0   0   1   0   1   1   1   0   1   0   1   1
50   1   1   1   1   1   1   0   1   1   1   1   0   1   0   1   1   1   0   1
51   1   1   0   1   0   0   1   0   0   1   0   1   1   1   0   1   0   1   1
52   0   0   1   0   1   1   1   1   1   0   1   1   0   1   1   0   1   1   0
53   0   0   1   0   1   1   1   1   1   0   1   1   0   1   1   0   1   1   0
54   0   0   1   0   1   1   1   1   1   0   1   1   0   1   1   0   1   1   0
55   0   0   1   0   1   1   1   1   1   0   1   1   0   1   1   0   1   1   0
56   1   1   1   1   1   1   0   1   1   1   1   0   1   0   1   1   1   0   1
57   0   0   1   0   1   1   1   1   1   0   1   1   0   1   1   0   1   1   0
58   1   1   1   1   1   1   0   1   1   1   1   0   1   0   1   1   1   0   1
59   1   1   1   1   1   1   0   1   1   1   1   0   1   0   1   1   1   0   1

:   20  21  22  23  24  25  26  27  28  29  30  31  32  33  34  35  36  37  38 :=
1    1   0   1   1   0   1   1   1   1   0   1   1   1   1   0   0   0   1   0
2    1   0   1   1   0   1   1   1   1   0   1   1   1   1   0   0   0   1   0
3    1   1   0   0   1   0   0   0   1   1   1   0   1   1   1   1   1   0   1
4    1   0   1   1   0   1   1   1   1   0   1   1   1   1   0   0   0   1   0
5    1   1   0   0   1   0   0   0   1   1   1   0   1   1   1   1   1   0   1
6    1   1   0   0   1   0   0   0   1   1   1   0   1   1   1   1   1   0   1
7    0   1   1   1   1   1   1   1   0   1   0   1   0   0   1   1   1   1   1
8    1   1   0   0   1   0   0   0   1   1   1   0   1   1   1   1   1   0   1
9    1   1   0   0   1   0   0   0   1   1   1   0   1   1   1   1   1   0   1
10   1   0   1   1   0   1   1   1   1   0   1   1   1   1   0   0   0   1   0
11   1   1   0   0   1   0   0   0   1   1   1   0   1   1   1   1   1   0   1
12   0   1   1   1   1   1   1   1   0   1   0   1   0   0   1   1   1   1   1
13   1   0   1   1   0   1   1   1   1   0   1   1   1   1   0   0   0   1   0
14   0   1   1   1   1   1   1   1   0   1   0   1   0   0   1   1   1   1   1
15   1   1   0   0   1   0   0   0   1   1   1   0   1   1   1   1   1   0   1
16   1   0   1   1   0   1   1   1   1   0   1   1   1   1   0   0   0   1   0
17   1   1   0   0   1   0   0   0   1   1   1   0   1   1   1   1   1   0   1
18   0   1   1   1   1   1   1   1   0   1   0   1   0   0   1   1   1   1   1
19   1   0   1   1   0   1   1   1   1   0   1   1   1   1   0   0   0   1   0
20   0   1   1   1   1   1   1   1   0   1   0   1   0   0   1   1   1   1   1
21   1   0   1   1   0   1   1   1   1   0   1   1   1   1   0   0   0   1   0
22   1   1   0   0   1   0   0   0   1   1   1   0   1   1   1   1   1   0   1
23   1   1   0   0   1   0   0   0   1   1   1   0   1   1   1   1   1   0   1
24   1   0   1   1   0   1   1   1   1   0   1   1   1   1   0   0   0   1   0
25   1   1   0   0   1   0   0   0   1   1   1   0   1   1   1   1   1   0   1
26   1   1   0   0   1   0   0   0   1   1   1   0   1   1   1   1   1   0   1
27   1   1   0   0   1   0   0   0   1   1   1   0   1   1   1   1   1   0   1
28   0   1   1   1   1   1   1   1   0   1   0   1   0   0   1   1   1   1   1
29   1   0   1   1   0   1   1   1   1   0   1   1   1   1   0   0   0   1   0
30   0   1   1   1   1   1   1   1   0   1   0   1   0   0   1   1   1   1   1
31   1   1   0   0   1   0   0   0   1   1   1   0   1   1   1   1   1   0   1
32   0   1   1   1   1   1   1   1   0   1   0   1   0   0   1   1   1   1   1
33   0   1   1   1   1   1   1   1   0   1   0   1   0   0   1   1   1   1   1
34   1   0   1   1   0   1   1   1   1   0   1   1   1   1   0   0   0   1   0
35   1   0   1   1   0   1   1   1   1   0   1   1   1   1   0   0   0   1   0
36   1   0   1   1   0   1   1   1   1   0   1   1   1   1   0   0   0   1   0
37   1   1   0   0   1   0   0   0   1   1   1   0   1   1   1   1   1   0   1
38   1   0   1   1   0   1   1   1   1   0   1   1   1   1   0   0   0   1   0
39   1   0   1   1   0   1   1   1   1   0   1   1   1   1   0   0   0   1   0
40   1   0   1   1   0   1   1   1   1   0   1   1   1   1   0   0   0   1   0
41   1   0   1   1   0   1   1   1   1   0   1   1   1   1   0   0   0   1   0
42   1   0   1   1   0   1   1   1   1   0   1   1   1   1   0   0   0   1   0
43   0   1   1   1   1   1   1   1   0   1   0   1   0   0   1   1   1   1   1
44   1   0   1   1   0   1   1   1   1   0   1   1   1   1   0   0   0   1   0
45   0   1   1   1   1   1   1   1   0   1   0   1   0   0   1   1   1   1   1
46   0   1   1   1   1   1   1   1   0   1   0   1   0   0   1   1   1   1   1
47   1   1   0   0   1   0   0   0   1   1   1   0   1   1   1   1   1   0   1
48   0   1   1   1   1   1   1   1   0   1   0   1   0   0   1   1   1   1   1
49   1   1   0   0   1   0   0   0   1   1   1   0   1   1   1   1   1   0   1
50   0   1   1   1   1   1   1   1   0   1   0   1   0   0   1   1   1   1   1
51   1   1   0   0   1   0   0   0   1   1   1   0   1   1   1   1   1   0   1
52   1   0   1   1   0   1   1   1   1   0   1   1   1   1   0   0   0   1   0
53   1   0   1   1   0   1   1   1   1   0   1   1   1   1   0   0   0   1   0
54   1   0   1   1   0   1   1   1   1   0   1   1   1   1   0   0   0   1   0
55   1   0   1   1   0   1   1   1   1   0   1   1   1   1   0   0   0   1   0
56   0   1   1   1   1   1   1   1   0   1   0   1   0   0   1   1   1   1   1
57   1   0   1   1   0   1   1   1   1   0   1   1   1   1   0   0   0   1   0
58   0   1   1   1   1   1   1   1   0   1   0   1   0   0   1   1   1   1   1
59   0   1   1   1   1   1   1   1   0   1   0   1   0   0   1   1   1   1   1

:   39  40  41  42  43  44  45  46  47  48  49  50  51  52  53  54  55  56  57 :=
1    0   0   0   0   1   0   1   1   1   1   1   1   1   0   0   0   0   1   0
2    0   0   0   0   1   0   1   1   1   1   1   1   1   0   0   0   0   1   0
3    1   1   1   1   1   1   1   1   0   1   0   1   0   1   1   1   1   1   1
4    0   0   0   0   1   0   1   1   1   1   1   1   1   0   0   0   0   1   0
5    1   1   1   1   1   1   1   1   0   1   0   1   0   1   1   1   1   1   1
6    1   1   1   1   1   1   1   1   0   1   0   1   0   1   1   1   1   1   1
7    1   1   1   1   0   1   0   0   1   0   1   0   1   1   1   1   1   0   1
8    1   1   1   1   1   1   1   1   0   1   0   1   0   1   1   1   1   1   1
9    1   1   1   1   1   1   1   1   0   1   0   1   0   1   1   1   1   1   1
10   0   0   0   0   1   0   1   1   1   1   1   1   1   0   0   0   0   1   0
11   1   1   1   1   1   1   1   1   0   1   0   1   0   1   1   1   1   1   1
12   1   1   1   1   0   1   0   0   1   0   1   0   1   1   1   1   1   0   1
13   0   0   0   0   1   0   1   1   1   1   1   1   1   0   0   0   0   1   0
14   1   1   1   1   0   1   0   0   1   0   1   0   1   1   1   1   1   0   1
15   1   1   1   1   1   1   1   1   0   1   0   1   0   1   1   1   1   1   1
16   0   0   0   0   1   0   1   1   1   1   1   1   1   0   0   0   0   1   0
17   1   1   1   1   1   1   1   1   0   1   0   1   0   1   1   1   1   1   1
18   1   1   1   1   0   1   0   0   1   0   1   0   1   1   1   1   1   0   1
19   0   0   0   0   1   0   1   1   1   1   1   1   1   0   0   0   0   1   0
20   1   1   1   1   0   1   0   0   1   0   1   0   1   1   1   1   1   0   1
21   0   0   0   0   1   0   1   1   1   1   1   1   1   0   0   0   0   1   0
22   1   1   1   1   1   1   1   1   0   1   0   1   0   1   1   1   1   1   1
23   1   1   1   1   1   1   1   1   0   1   0   1   0   1   1   1   1   1   1
24   0   0   0   0   1   0   1   1   1   1   1   1   1   0   0   0   0   1   0
25   1   1   1   1   1   1   1   1   0   1   0   1   0   1   1   1   1   1   1
26   1   1   1   1   1   1   1   1   0   1   0   1   0   1   1   1   1   1   1
27   1   1   1   1   1   1   1   1   0   1   0   1   0   1   1   1   1   1   1
28   1   1   1   1   0   1   0   0   1   0   1   0   1   1   1   1   1   0   1
29   0   0   0   0   1   0   1   1   1   1   1   1   1   0   0   0   0   1   0
30   1   1   1   1   0   1   0   0   1   0   1   0   1   1   1   1   1   0   1
31   1   1   1   1   1   1   1   1   0   1   0   1   0   1   1   1   1   1   1
32   1   1   1   1   0   1   0   0   1   0   1   0   1   1   1   1   1   0   1
33   1   1   1   1   0   1   0   0   1   0   1   0   1   1   1   1   1   0   1
34   0   0   0   0   1   0   1   1   1   1   1   1   1   0   0   0   0   1   0
35   0   0   0   0   1   0   1   1   1   1   1   1   1   0   0   0   0   1   0
36   0   0   0   0   1   0   1   1   1   1   1   1   1   0   0   0   0   1   0
37   1   1   1   1   1   1   1   1   0   1   0   1   0   1   1   1   1   1   1
38   0   0   0   0   1   0   1   1   1   1   1   1   1   0   0   0   0   1   0
39   0   0   0   0   1   0   1   1   1   1   1   1   1   0   0   0   0   1   0
40   0   0   0   0   1   0   1   1   1   1   1   1   1   0   0   0   0   1   0
41   0   0   0   0   1   0   1   1   1   1   1   1   1   0   0   0   0   1   0
42   0   0   0   0   1   0   1   1   1   1   1   1   1   0   0   0   0   1   0
43   1   1   1   1   0   1   0   0   1   0   1   0   1   1   1   1   1   0   1
44   0   0   0   0   1   0   1   1   1   1   1   1   1   0   0   0   0   1   0
45   1   1   1   1   0   1   0   0   1   0   1   0   1   1   1   1   1   0   1
46   1   1   1   1   0   1   0   0   1   0   1   0   1   1   1   1   1   0   1
47   1   1   1   1   1   1   1   1   0   1   0   1   0   1   1   1   1   1   1
48   1   1   1   1   0   1   0   0   1   0   1   0   1   1   1   1   1   0   1
49   1   1   1   1   1   1   1   1   0   1   0   1   0   1   1   1   1   1   1
50   1   1   1   1   0   1   0   0   1   0   1   0   1   1   1   1   1   0   1
51   1   1   1   1   1   1   1   1   0   1   0   1   0   1   1   1   1   1   1
52   0   0   0   0   1   0   1   1   1   1   1   1   1   0   0   0   0   1   0
53   0   0   0   0   1   0   1   1   1   1   1   1   1   0   0   0   0   1   0
54   0   0   0   0   1   0   1   1   1   1   1   1   1   0   0   0   0   1   0
55   0   0   0   0   1   0   1   1   1   1   1   1   1   0   0   0   0   1   0
56   1   1   1   1   0   1   0   0   1   0   1   0   1   1   1   1   1   0   1
57   0   0   0   0   1   0   1   1   1   1   1   1   1   0   0   0   0   1   0
58   1   1   1   1   0   1   0   0   1   0   1   0   1   1   1   1   1   0   1
59   1   1   1   1   0   1   0   0   1   0   1   0   1   1   1   1   1   0   1

:   58  59    :=
1    1   1
2    1   1
3    1   1
4    1   1
5    1   1
6    1   1
7    0   0
8    1   1
9    1   1
10   1   1
11   1   1
12   0   0
13   1   1
14   0   0
15   1   1
16   1   1
17   1   1
18   0   0
19   1   1
20   0   0
21   1   1
22   1   1
23   1   1
24   1   1
25   1   1
26   1   1
27   1   1
28   0   0
29   1   1
30   0   0
31   1   1
32   0   0
33   0   0
34   1   1
35   1   1
36   1   1
37   1   1
38   1   1
39   1   1
40   1   1
41   1   1
42   1   1
43   0   0
44   1   1
45   0   0
46   0   0
47   1   1
48   0   0
49   1   1
50   0   0
51   1   1
52   1   1
53   1   1
54   1   1
55   1   1
56   0   0
57   1   1
58   0   0
59   0   0
;

